%NProcShared=12
#n B3LYP/STO-3G Freq

 Test

0 1
H         -2.74435        1.27572        0.00000
H         -2.03635        1.27572        0.00000
